(set-logic HORN)
(set-info :source |
    Benchmark: C_VC
    Output by Princess (http://www.philipp.ruemmer.org/princess.shtml)
|)
(set-info :status sat)
(declare-fun inv_main10 (Int Int Int Int Int Int Int Int) Bool)
(declare-fun inv_main4 (Int Int Int Int Int Int Int Int) Bool)
(declare-fun inv_main7 (Int Int Int Int Int Int Int Int) Bool)
(assert (inv_main4 20000001 0 0 0 0 0 0 0))
(assert (forall ((var0 Int) (var1 Int) (var2 Int) (var3 Int) (var4 Int) (var5 Int) (var6 Int) (var7 Int)) (or (not (and (inv_main7 var7 var6 var5 var4 var3 var2 var1 var0) (not (<= 0 (+ (+ var6 (* (- 1) var2)) (- 1)))))) (inv_main10 var7 var6 var5 var4 var3 var2 var1 var0))))
(assert (forall ((var0 Int) (var1 Int) (var2 Int) (var3 Int) (var4 Int) (var5 Int) (var6 Int) (var7 Int) (var8 Int)) (or (not (and (inv_main4 var8 var7 var6 var5 var4 var3 var2 var1) (<= 0 (+ var8 (* (- 1) var0))))) (inv_main7 var8 var0 var6 var5 var4 var3 var2 var1))))
(assert (forall ((var0 Int) (var1 Int) (var2 Int) (var3 Int) (var4 Int) (var5 Int) (var6 Int) (var7 Int) (var8 Int) (var9 Int)) (or (not (and (inv_main7 var7 var6 var5 var4 var3 var2 var1 var0) (and (and (and (and (and (and (<= 0 (+ (+ 5 (* (- 1) var8)) (- 1))) (<= 0 (+ (+ 5 (* 1 var8)) (- 1)))) (or (not (<= 0 (+ var8 (- 1)))) (<= 0 (+ var2 (- 1))))) (or (not (<= 0 (+ (* (- 1) var8) (- 1)))) (<= 0 (+ (* (- 1) var2) (- 1))))) (= var2 (+ (* 5 var9) var8))) (= var8 0)) (<= 0 (+ (+ var6 (* (- 1) var2)) (- 1)))))) (inv_main7 var7 var6 var5 var4 var3 (+ var2 1) (+ var1 1) var0))))
(assert (forall ((var0 Int) (var1 Int) (var2 Int) (var3 Int) (var4 Int) (var5 Int) (var6 Int) (var7 Int) (var8 Int) (var9 Int) (var10 Int) (var11 Int)) (or (not (and (inv_main7 var7 var6 var5 var4 var3 var2 var1 var0) (and (and (and (and (and (and (<= 0 (+ (+ 4 (* (- 1) var8)) (- 1))) (<= 0 (+ (+ 4 (* 1 var8)) (- 1)))) (or (not (<= 0 (+ var8 (- 1)))) (<= 0 (+ var2 (- 1))))) (or (not (<= 0 (+ (* (- 1) var8) (- 1)))) (<= 0 (+ (* (- 1) var2) (- 1))))) (= var2 (+ (* 4 var9) var8))) (= var8 0)) (and (not (or (not (and (and (and (and (<= 0 (+ (+ 5 (* (- 1) var10)) (- 1))) (<= 0 (+ (+ 5 (* 1 var10)) (- 1)))) (or (not (<= 0 (+ var10 (- 1)))) (<= 0 (+ var2 (- 1))))) (or (not (<= 0 (+ (* (- 1) var10) (- 1)))) (<= 0 (+ (* (- 1) var2) (- 1))))) (= var2 (+ (* 5 var11) var10)))) (= var10 0))) (<= 0 (+ (+ var6 (* (- 1) var2)) (- 1))))))) (inv_main7 var7 var6 var5 var4 var3 (+ var2 1) var1 (+ var0 1)))))
(assert (forall ((var0 Int) (var1 Int) (var2 Int) (var3 Int) (var4 Int) (var5 Int) (var6 Int) (var7 Int) (var8 Int) (var9 Int) (var10 Int) (var11 Int) (var12 Int) (var13 Int)) (or (not (and (inv_main7 var7 var6 var5 var4 var3 var2 var1 var0) (and (and (and (and (and (and (<= 0 (+ (+ 3 (* (- 1) var8)) (- 1))) (<= 0 (+ (+ 3 (* 1 var8)) (- 1)))) (or (not (<= 0 (+ var8 (- 1)))) (<= 0 (+ var2 (- 1))))) (or (not (<= 0 (+ (* (- 1) var8) (- 1)))) (<= 0 (+ (* (- 1) var2) (- 1))))) (= var2 (+ (* 3 var9) var8))) (= var8 0)) (and (not (or (not (and (and (and (and (<= 0 (+ (+ 4 (* (- 1) var10)) (- 1))) (<= 0 (+ (+ 4 (* 1 var10)) (- 1)))) (or (not (<= 0 (+ var10 (- 1)))) (<= 0 (+ var2 (- 1))))) (or (not (<= 0 (+ (* (- 1) var10) (- 1)))) (<= 0 (+ (* (- 1) var2) (- 1))))) (= var2 (+ (* 4 var11) var10)))) (= var10 0))) (and (not (or (not (and (and (and (and (<= 0 (+ (+ 5 (* (- 1) var12)) (- 1))) (<= 0 (+ (+ 5 (* 1 var12)) (- 1)))) (or (not (<= 0 (+ var12 (- 1)))) (<= 0 (+ var2 (- 1))))) (or (not (<= 0 (+ (* (- 1) var12) (- 1)))) (<= 0 (+ (* (- 1) var2) (- 1))))) (= var2 (+ (* 5 var13) var12)))) (= var12 0))) (<= 0 (+ (+ var6 (* (- 1) var2)) (- 1)))))))) (inv_main7 var7 var6 (+ var5 1) var4 var3 (+ var2 1) var1 var0))))
(assert (forall ((var0 Int) (var1 Int) (var2 Int) (var3 Int) (var4 Int) (var5 Int) (var6 Int) (var7 Int) (var8 Int) (var9 Int) (var10 Int) (var11 Int) (var12 Int) (var13 Int) (var14 Int) (var15 Int)) (or (not (and (inv_main7 var7 var6 var5 var4 var3 var2 var1 var0) (and (and (and (and (and (and (<= 0 (+ (+ 2 (* (- 1) var8)) (- 1))) (<= 0 (+ (+ 2 (* 1 var8)) (- 1)))) (or (not (<= 0 (+ var8 (- 1)))) (<= 0 (+ var2 (- 1))))) (or (not (<= 0 (+ (* (- 1) var8) (- 1)))) (<= 0 (+ (* (- 1) var2) (- 1))))) (= var2 (+ (* 2 var9) var8))) (= var8 0)) (and (not (or (not (and (and (and (and (<= 0 (+ (+ 3 (* (- 1) var10)) (- 1))) (<= 0 (+ (+ 3 (* 1 var10)) (- 1)))) (or (not (<= 0 (+ var10 (- 1)))) (<= 0 (+ var2 (- 1))))) (or (not (<= 0 (+ (* (- 1) var10) (- 1)))) (<= 0 (+ (* (- 1) var2) (- 1))))) (= var2 (+ (* 3 var11) var10)))) (= var10 0))) (and (not (or (not (and (and (and (and (<= 0 (+ (+ 4 (* (- 1) var12)) (- 1))) (<= 0 (+ (+ 4 (* 1 var12)) (- 1)))) (or (not (<= 0 (+ var12 (- 1)))) (<= 0 (+ var2 (- 1))))) (or (not (<= 0 (+ (* (- 1) var12) (- 1)))) (<= 0 (+ (* (- 1) var2) (- 1))))) (= var2 (+ (* 4 var13) var12)))) (= var12 0))) (and (not (or (not (and (and (and (and (<= 0 (+ (+ 5 (* (- 1) var14)) (- 1))) (<= 0 (+ (+ 5 (* 1 var14)) (- 1)))) (or (not (<= 0 (+ var14 (- 1)))) (<= 0 (+ var2 (- 1))))) (or (not (<= 0 (+ (* (- 1) var14) (- 1)))) (<= 0 (+ (* (- 1) var2) (- 1))))) (= var2 (+ (* 5 var15) var14)))) (= var14 0))) (<= 0 (+ (+ var6 (* (- 1) var2)) (- 1))))))))) (inv_main7 var7 var6 var5 var4 (+ var3 1) (+ var2 1) var1 var0))))
(assert (forall ((var0 Int) (var1 Int) (var2 Int) (var3 Int) (var4 Int) (var5 Int) (var6 Int) (var7 Int) (var8 Int) (var9 Int) (var10 Int) (var11 Int) (var12 Int) (var13 Int) (var14 Int) (var15 Int)) (or (not (and (inv_main7 var7 var6 var5 var4 var3 var2 var1 var0) (and (not (or (not (and (and (and (and (<= 0 (+ (+ 2 (* (- 1) var8)) (- 1))) (<= 0 (+ (+ 2 (* 1 var8)) (- 1)))) (or (not (<= 0 (+ var8 (- 1)))) (<= 0 (+ var2 (- 1))))) (or (not (<= 0 (+ (* (- 1) var8) (- 1)))) (<= 0 (+ (* (- 1) var2) (- 1))))) (= var2 (+ (* 2 var9) var8)))) (= var8 0))) (and (not (or (not (and (and (and (and (<= 0 (+ (+ 3 (* (- 1) var10)) (- 1))) (<= 0 (+ (+ 3 (* 1 var10)) (- 1)))) (or (not (<= 0 (+ var10 (- 1)))) (<= 0 (+ var2 (- 1))))) (or (not (<= 0 (+ (* (- 1) var10) (- 1)))) (<= 0 (+ (* (- 1) var2) (- 1))))) (= var2 (+ (* 3 var11) var10)))) (= var10 0))) (and (not (or (not (and (and (and (and (<= 0 (+ (+ 4 (* (- 1) var12)) (- 1))) (<= 0 (+ (+ 4 (* 1 var12)) (- 1)))) (or (not (<= 0 (+ var12 (- 1)))) (<= 0 (+ var2 (- 1))))) (or (not (<= 0 (+ (* (- 1) var12) (- 1)))) (<= 0 (+ (* (- 1) var2) (- 1))))) (= var2 (+ (* 4 var13) var12)))) (= var12 0))) (and (not (or (not (and (and (and (and (<= 0 (+ (+ 5 (* (- 1) var14)) (- 1))) (<= 0 (+ (+ 5 (* 1 var14)) (- 1)))) (or (not (<= 0 (+ var14 (- 1)))) (<= 0 (+ var2 (- 1))))) (or (not (<= 0 (+ (* (- 1) var14) (- 1)))) (<= 0 (+ (* (- 1) var2) (- 1))))) (= var2 (+ (* 5 var15) var14)))) (= var14 0))) (<= 0 (+ (+ var6 (* (- 1) var2)) (- 1))))))))) (inv_main7 var7 var6 var5 (+ var4 1) var3 (+ var2 1) var1 var0))))
(assert (forall ((var0 Int) (var1 Int) (var2 Int) (var3 Int) (var4 Int) (var5 Int) (var6 Int) (var7 Int)) (not (and (inv_main10 var7 var6 var5 var4 var3 var2 var1 var0) (not (= (+ (+ (+ (+ var5 var3) var4) var0) var1) var2))))))
(check-sat)
